50, 638
11, 6
55, 50
16, 11
28, 23
53, 48
44, 39
15, 10
10, 5
28, 23
54, 49
18, 13
38, 33
54, 49
14, 9
33, 28
26, 21
41, 36
36, 31
32, 27
10, 5
51, 46
25, 20
9, 4
24, 19
51, 46
55, 50
15, 10
29, 24
12, 7
34, 29
49, 44
32, 27
53, 48
10, 5
21, 16
27, 22
51, 46
30, 25
40, 35
18, 13
30, 25
31, 26
43, 38
32, 27
7, 2
17, 12
11, 6
36, 31
37, 32
30, 25
